c This is UnifRandomKSATGenerator
c uniform random 3-SAT generated instance with: 
c clause length: 3 
c number variables: 20 
c number clauses: 85 
c clause to variable ratio: 4.27 
c random number generator name: SHA1PRNG 
c random number generator provider: SUN 
c random number generator seed: 6033306090294386651 
p cnf 20 85
-9 13 -15 0
-3 12 -8 0
17 -3 -12 0
-1 3 14 0
16 18 -19 0
16 -19 20 0
-11 18 -12 0
-10 -4 -6 0
-2 12 -16 0
17 -2 -20 0
-2 20 -16 0
3 12 20 0
1 2 -19 0
-18 -3 -5 0
-10 20 -6 0
9 11 -15 0
-9 1 -20 0
11 -12 7 0
16 -1 -12 0
17 -4 7 0
-9 -16 15 0
20 -7 -15 0
16 -9 14 0
8 -12 14 0
8 -4 13 0
-18 19 -4 0
-9 -2 12 0
-18 -4 20 0
-10 -4 14 0
10 5 15 0
-1 19 6 0
9 10 -20 0
16 12 20 0
-18 17 13 0
-11 -14 -7 0
1 -10 -3 0
3 5 -7 0
9 4 13 0
-20 -15 14 0
3 13 7 0
-9 -13 20 0
-20 -4 -14 0
8 -20 -6 0
-20 3 -14 0
4 -14 -16 0
-19 -4 20 0
-9 -8 7 0
16 -2 6 0
18 -13 -8 0
20 12 5 0
-14 15 -16 0
16 18 19 0
1 -20 -5 0
1 -5 -16 0
20 13 -15 0
8 3 -12 0
9 -11 5 0
-1 -13 -7 0
1 -20 -13 0
18 3 -20 0
-12 11 3 0
9 -3 -15 0
-9 -1 -10 0
-13 -7 6 0
3 -5 -8 0
5 -7 15 0
2 20 15 0
-1 -2 10 0
1 5 13 0
17 -13 -7 0
19 11 4 0
18 2 7 0
-9 -12 -16 0
-11 14 15 0
-9 10 14 0
10 -5 14 0
-17 -14 6 0
-18 19 -8 0
-12 -16 15 0
17 -18 -19 0
-1 -19 3 0
-18 -11 -15 0
-1 3 -15 0
-1 -17 -13 0
18 -11 7 0
